(declare-const ent0 Bool)
(declare-const ent1 Bool)
(declare-const ent2 Bool)
(declare-const ent3 Bool)
(declare-const ent4 Bool)
(declare-const ent5 Bool)
(declare-const ent6 Bool)
(declare-const ent7 Bool)
(declare-const ent8 Bool)
(declare-const ent9 Bool)
(declare-const ent10 Bool)
(declare-const ent11 Bool)
(declare-const ent12 Bool)
(declare-const ent13 Bool)
(declare-const ent14 Bool)
(declare-const ent15 Bool)
(declare-const ent16 Bool)
(declare-const ent17 Bool)
(declare-const ent18 Bool)
(declare-const ent19 Bool)
(declare-const reac0 Bool)
(declare-const dir0 Bool)
(declare-const coef0 Int)
(declare-const reac1 Bool)
(declare-const dir1 Bool)
(declare-const coef1 Int)
(declare-const reac2 Bool)
(declare-const dir2 Bool)
(declare-const coef2 Int)
(declare-const reac3 Bool)
(declare-const dir3 Bool)
(declare-const coef3 Int)
(declare-const reac4 Bool)
(declare-const dir4 Bool)
(declare-const coef4 Int)
(declare-const reac5 Bool)
(declare-const dir5 Bool)
(declare-const coef5 Int)
(declare-const reac6 Bool)
(declare-const dir6 Bool)
(declare-const coef6 Int)
(declare-const reac7 Bool)
(declare-const dir7 Bool)
(declare-const coef7 Int)
(declare-const reac8 Bool)
(declare-const dir8 Bool)
(declare-const coef8 Int)
(declare-const reac9 Bool)
(declare-const dir9 Bool)
(declare-const coef9 Int)
(declare-const reac10 Bool)
(declare-const dir10 Bool)
(declare-const coef10 Int)
(declare-const reac11 Bool)
(declare-const dir11 Bool)
(declare-const coef11 Int)
(declare-const reac12 Bool)
(declare-const dir12 Bool)
(declare-const coef12 Int)
(declare-const reac13 Bool)
(declare-const dir13 Bool)
(declare-const coef13 Int)
(declare-const reac14 Bool)
(declare-const dir14 Bool)
(declare-const coef14 Int)
(declare-const reac15 Bool)
(declare-const dir15 Bool)
(declare-const coef15 Int)
(declare-const reac16 Bool)
(declare-const dir16 Bool)
(declare-const coef16 Int)
(declare-const reac17 Bool)
(declare-const dir17 Bool)
(declare-const coef17 Int)
(declare-const reac18 Bool)
(declare-const dir18 Bool)
(declare-const coef18 Int)
(declare-const reac19 Bool)
(declare-const dir19 Bool)
(declare-const coef19 Int)
(declare-const reac20 Bool)
(declare-const dir20 Bool)
(declare-const coef20 Int)
(declare-const reac21 Bool)
(declare-const dir21 Bool)
(declare-const coef21 Int)
(declare-const reac22 Bool)
(declare-const dir22 Bool)
(declare-const coef22 Int)
(declare-const reac23 Bool)
(declare-const dir23 Bool)
(declare-const coef23 Int)
(declare-const reac24 Bool)
(declare-const dir24 Bool)
(declare-const coef24 Int)
(declare-const reac25 Bool)
(declare-const dir25 Bool)
(declare-const coef25 Int)
(declare-const reac26 Bool)
(declare-const dir26 Bool)
(declare-const coef26 Int)
(declare-const reac27 Bool)
(declare-const dir27 Bool)
(declare-const coef27 Int)
(declare-const reac28 Bool)
(declare-const dir28 Bool)
(declare-const coef28 Int)
(assert (= dir0 (< coef0 0)))
(assert (= dir1 (< coef1 0)))
(assert (= dir2 (< coef2 0)))
(assert (= dir3 (< coef3 0)))
(assert (= dir4 (< coef4 0)))
(assert (= dir5 (< coef5 0)))
(assert (= dir6 (< coef6 0)))
(assert (= dir7 (< coef7 0)))
(assert (= dir8 (< coef8 0)))
(assert (= dir9 (< coef9 0)))
(assert (= dir10 (< coef10 0)))
(assert (= dir11 (< coef11 0)))
(assert (= dir12 (< coef12 0)))
(assert (= dir13 (< coef13 0)))
(assert (= dir14 (< coef14 0)))
(assert (= dir15 (< coef15 0)))
(assert (= dir16 (< coef16 0)))
(assert (= dir17 (< coef17 0)))
(assert (= dir18 (< coef18 0)))
(assert (= dir19 (< coef19 0)))
(assert (= dir20 (< coef20 0)))
(assert (= dir21 (< coef21 0)))
(assert (= dir22 (< coef22 0)))
(assert (= dir23 (< coef23 0)))
(assert (= dir24 (< coef24 0)))
(assert (= dir25 (< coef25 0)))
(assert (= dir26 (< coef26 0)))
(assert (= dir27 (< coef27 0)))
(assert (= dir28 (< coef28 0)))
(assert (=> reac0 (and(or ent0 ent0) ent2)))
(assert (=> reac1 (and(or ent1 ent1) ent3)))
(assert (=> reac2 (and(or ent1 ent0) ent4)))
(assert (=> reac3 (and(or ent1 ent2) ent6)))
(assert (=> reac4 (and(or ent1 ent3) ent7)))
(assert (=> reac5 (and(or ent0 ent3) ent8)))
(assert (=> reac6 (and(or ent1 ent4) ent8)))
(assert (=> reac7 (and(or ent4 ent3) ent9)))
(assert (=> reac8 (and(or ent0 ent7) ent9)))
(assert (=> reac9 (and(or ent3 ent3) ent10)))
(assert (=> reac10 (and(or ent1 ent7) ent10)))
(assert (=> reac11 (and(or ent4 ent2) ent11)))
(assert (=> reac12 (and(or ent0 ent6) ent11)))
(assert (=> reac13 (and(or ent0 ent8) ent12)))
(assert (=> reac14 (and(or ent4 ent4) ent12)))
(assert (=> reac15 (and(or ent3 ent2) ent12)))
(assert (=> reac16 (and(or ent2 ent2) ent13)))
(assert (=> reac17 (and(or ent0 ent5) ent13)))
(assert (=> reac18 (and(or ent0 ent10) ent14)))
(assert (=> reac19 (and(or ent4 ent7) ent14)))
(assert (=> reac20 (and(or ent3 ent8) ent14)))
(assert (=> reac21 (and(or ent0 ent13) ent15)))
(assert (=> reac22 (and(or ent1 ent10) ent16)))
(assert (=> reac23 (and(or ent1 ent13) ent17)))
(assert (=> reac24 (and(or ent4 ent6) ent18)))
(assert (=> reac25 (and(or ent1 ent11) ent18)))
(assert (=> reac26 (and(or ent2 ent7) ent19)))
(assert (=> reac27 (and(or ent3 ent6) ent19)))
(assert (=> reac28 (and(or ent4 ent8) ent19)))
(assert (=> (and reac2 (not dir2)) (or (not ent1) (not ent0))))
(assert (=> (and reac3 (not dir3)) (or (not ent1) (not ent2))))
(assert (=> (and reac4 (not dir4)) (or (not ent1) (not ent3))))
(assert (=> (and reac5 (not dir5)) (or (not ent0) (not ent3))))
(assert (=> (and reac6 (not dir6)) (or (not ent1) (not ent4))))
(assert (=> (and reac7 (not dir7)) (or (not ent4) (not ent3))))
(assert (=> (and reac8 (not dir8)) (or (not ent0) (not ent7))))
(assert (=> (and reac10 (not dir10)) (or (not ent1) (not ent7))))
(assert (=> (and reac11 (not dir11)) (or (not ent4) (not ent2))))
(assert (=> (and reac12 (not dir12)) (or (not ent0) (not ent6))))
(assert (=> (and reac13 (not dir13)) (or (not ent0) (not ent8))))
(assert (=> (and reac15 (not dir15)) (or (not ent3) (not ent2))))
(assert (=> (and reac17 (not dir17)) (or (not ent0) (not ent5))))
(assert (=> (and reac18 (not dir18)) (or (not ent0) (not ent10))))
(assert (=> (and reac19 (not dir19)) (or (not ent4) (not ent7))))
(assert (=> (and reac20 (not dir20)) (or (not ent3) (not ent8))))
(assert (=> (and reac21 (not dir21)) (or (not ent0) (not ent13))))
(assert (=> (and reac22 (not dir22)) (or (not ent1) (not ent10))))
(assert (=> (and reac23 (not dir23)) (or (not ent1) (not ent13))))
(assert (=> (and reac24 (not dir24)) (or (not ent4) (not ent6))))
(assert (=> (and reac25 (not dir25)) (or (not ent1) (not ent11))))
(assert (=> (and reac26 (not dir26)) (or (not ent2) (not ent7))))
(assert (=> (and reac27 (not dir27)) (or (not ent3) (not ent6))))
(assert (=> (and reac28 (not dir28)) (or (not ent4) (not ent8))))
(assert (=> ent0 (> (+ (ite reac0 (+ (- coef0) (- coef0)) 0) (ite reac2 (- coef2) 0) (ite reac5 (- coef5) 0) (ite reac8 (- coef8) 0) (ite reac12 (- coef12) 0) (ite reac13 (- coef13) 0) (ite reac17 (- coef17) 0) (ite reac18 (- coef18) 0) (ite reac21 (- coef21) 0) 0) 0)))
(assert (=> ent1 (> (+ (ite reac1 (+ (- coef1) (- coef1)) 0) (ite reac2 (- coef2) 0) (ite reac3 (- coef3) 0) (ite reac4 (- coef4) 0) (ite reac6 (- coef6) 0) (ite reac10 (- coef10) 0) (ite reac22 (- coef22) 0) (ite reac23 (- coef23) 0) (ite reac25 (- coef25) 0) 0) 0)))
(assert (=> ent2 (> (+ (ite reac0 coef0 0) (ite reac3 (- coef3) 0) (ite reac11 (- coef11) 0) (ite reac15 (- coef15) 0) (ite reac16 (+ (- coef16) (- coef16)) 0) (ite reac26 (- coef26) 0) 0) 0)))
(assert (=> ent3 (> (+ (ite reac1 coef1 0) (ite reac4 (- coef4) 0) (ite reac5 (- coef5) 0) (ite reac7 (- coef7) 0) (ite reac9 (+ (- coef9) (- coef9)) 0) (ite reac15 (- coef15) 0) (ite reac20 (- coef20) 0) (ite reac27 (- coef27) 0) 0) 0)))
(assert (=> ent4 (> (+ (ite reac2 coef2 0) (ite reac6 (- coef6) 0) (ite reac7 (- coef7) 0) (ite reac11 (- coef11) 0) (ite reac14 (+ (- coef14) (- coef14)) 0) (ite reac19 (- coef19) 0) (ite reac24 (- coef24) 0) (ite reac28 (- coef28) 0) 0) 0)))
(assert (=> ent5 (> (+ (ite reac17 (- coef17) 0) 0) 0)))
(assert (=> ent6 (> (+ (ite reac3 coef3 0) (ite reac12 (- coef12) 0) (ite reac24 (- coef24) 0) (ite reac27 (- coef27) 0) 0) 0)))
(assert (=> ent7 (> (+ (ite reac4 coef4 0) (ite reac8 (- coef8) 0) (ite reac10 (- coef10) 0) (ite reac19 (- coef19) 0) (ite reac26 (- coef26) 0) 0) 0)))
(assert (=> ent8 (> (+ (ite reac5 coef5 0) (ite reac6 coef6 0) (ite reac13 (- coef13) 0) (ite reac20 (- coef20) 0) (ite reac28 (- coef28) 0) 0) 0)))
(assert (=> ent9 (> (+ (ite reac7 coef7 0) (ite reac8 coef8 0) 0) 0)))
(assert (=> ent10 (> (+ (ite reac9 coef9 0) (ite reac10 coef10 0) (ite reac18 (- coef18) 0) (ite reac22 (- coef22) 0) 0) 0)))
(assert (=> ent11 (> (+ (ite reac11 coef11 0) (ite reac12 coef12 0) (ite reac25 (- coef25) 0) 0) 0)))
(assert (=> ent12 (> (+ (ite reac13 coef13 0) (ite reac14 coef14 0) (ite reac15 coef15 0) 0) 0)))
(assert (=> ent13 (> (+ (ite reac16 coef16 0) (ite reac17 coef17 0) (ite reac21 (- coef21) 0) (ite reac23 (- coef23) 0) 0) 0)))
(assert (=> ent14 (> (+ (ite reac18 coef18 0) (ite reac19 coef19 0) (ite reac20 coef20 0) 0) 0)))
(assert (=> ent15 (> (+ (ite reac21 coef21 0) 0) 0)))
(assert (=> ent16 (> (+ (ite reac22 coef22 0) 0) 0)))
(assert (=> ent17 (> (+ (ite reac23 coef23 0) 0) 0)))
(assert (=> ent18 (> (+ (ite reac24 coef24 0) (ite reac25 coef25 0) 0) 0)))
(assert (=> ent19 (> (+ (ite reac26 coef26 0) (ite reac27 coef27 0) (ite reac28 coef28 0) 0) 0)))
(assert ((_ at-most 7) ent0 ent1 ent2 ent3 ent4 ent5 ent6 ent7 ent8 ent9 ent10 ent11 ent12 ent13 ent14 ent15 ent16 ent17 ent18 ent19))
(assert ((_ at-least 7) ent0 ent1 ent2 ent3 ent4 ent5 ent6 ent7 ent8 ent9 ent10 ent11 ent12 ent13 ent14 ent15 ent16 ent17 ent18 ent19))
(assert ((_ at-least 7) reac0 reac1 reac2 reac3 reac4 reac5 reac6 reac7 reac8 reac9 reac10 reac11 reac12 reac13 reac14 reac15 reac16 reac17 reac18 reac19 reac20 reac21 reac22 reac23 reac24 reac25 reac26 reac27 reac28))
(assert ((_ at-most 7) reac0 reac1 reac2 reac3 reac4 reac5 reac6 reac7 reac8 reac9 reac10 reac11 reac12 reac13 reac14 reac15 reac16 reac17 reac18 reac19 reac20 reac21 reac22 reac23 reac24 reac25 reac26 reac27 reac28))
(assert (not (and reac0 dir0 reac13 (not dir13) reac15 dir15 ent0 ent2 ent12)))
(assert (not (and reac1 dir1 reac9 dir9 reac10 (not dir10) ent1 ent3 ent10)))
(assert (not (and reac0 dir0 reac16 dir16 reac17 (not dir17) ent0 ent2 ent13)))
(assert (not (and reac0 dir0 reac11 dir11 reac12 (not dir12) ent0 ent2 ent11)))
(assert (not (and reac4 (not dir4) reac9 dir9 reac10 (not dir10) ent3 ent7 ent10)))
(assert (not (and reac2 dir2 reac13 (not dir13) reac14 dir14 ent0 ent4 ent12)))
(assert (not (and reac6 (not dir6) reac13 (not dir13) reac14 dir14 ent4 ent8 ent12)))
(assert (not (and reac9 dir9 reac18 dir18 reac20 (not dir20) ent3 ent10 ent14)))
(assert (not (and reac1 dir1 reac5 dir5 reac6 (not dir6) ent1 ent3 ent8)))
(assert (not (and reac9 dir9 reac10 (not dir10) reac26 dir26 reac27 (not dir27) ent3 ent7 ent10 ent19)))
(assert (not (and reac1 (not dir1) reac4 dir4 reac26 dir26 reac27 (not dir27) ent1 ent3 ent7 ent19)))
(assert (not (and reac5 dir5 reac6 (not dir6) reac27 (not dir27) reac28 dir28 ent3 ent4 ent8 ent19)))
(assert (not (and reac1 dir1 reac6 (not dir6) reac27 dir27 reac28 (not dir28) ent1 ent3 ent8 ent19)))
(assert (not (and reac14 dir14 reac15 (not dir15) reac27 dir27 reac28 (not dir28) ent3 ent4 ent12 ent19)))
(assert (not (and reac1 dir1 reac2 (not dir2) reac27 dir27 reac28 (not dir28) ent1 ent3 ent4 ent19)))
(assert (not (and reac5 dir5 reac6 (not dir6) reac14 dir14 reac15 (not dir15) ent3 ent4 ent8 ent12)))
(assert (not (and reac5 (not dir5) reac6 dir6 reac9 dir9 reac10 (not dir10) ent1 ent3 ent8 ent10)))
(assert (not (and reac1 dir1 reac6 (not dir6) reac13 (not dir13) reac15 dir15 ent1 ent3 ent8 ent12)))
(assert (not (and reac1 dir1 reac2 (not dir2) reac19 (not dir19) reac20 dir20 ent1 ent3 ent4 ent14)))
(assert (not (and reac1 dir1 reac10 (not dir10) reac18 (not dir18) reac20 dir20 ent1 ent3 ent10 ent14)))
(assert (not (and reac1 (not dir1) reac4 dir4 reac7 (not dir7) reac8 dir8 ent1 ent3 ent7 ent9)))
(assert (not (and reac1 (not dir1) reac4 dir4 reac19 dir19 reac20 (not dir20) ent1 ent3 ent7 ent14)))
(assert (not (and reac0 dir0 reac5 (not dir5) reac26 dir26 reac28 (not dir28) ent0 ent2 ent8 ent19)))
(assert (not (and reac2 dir2 reac3 dir3 reac24 dir24 reac25 (not dir25) ent1 ent4 ent6 ent18)))
(assert (not (and reac7 (not dir7) reac8 dir8 reac9 dir9 reac10 (not dir10) ent3 ent7 ent9 ent10)))
(assert (not (and reac4 (not dir4) reac9 dir9 reac18 dir18 reac19 (not dir19) ent3 ent7 ent10 ent14)))
(assert (not (and reac9 dir9 reac10 (not dir10) reac19 dir19 reac20 (not dir20) ent3 ent7 ent10 ent14)))
(assert (not (and reac4 (not dir4) reac5 dir5 reac19 (not dir19) reac20 dir20 ent3 ent7 ent8 ent14)))
(assert (not (and reac11 (not dir11) reac12 (not dir12) reac24 dir24 reac25 (not dir25) ent4 ent6 ent11 ent18)))
(assert (not (and reac19 (not dir19) reac20 dir20 reac26 dir26 reac27 (not dir27) reac28 (not dir28) ent3 ent7 ent8 ent14 ent19)))
(assert (not (and reac4 dir4 reac6 (not dir6) reac26 dir26 reac27 (not dir27) reac28 (not dir28) ent1 ent3 ent7 ent8 ent19)))
(assert (not (and reac19 dir19 reac20 (not dir20) reac26 (not dir26) reac27 dir27 reac28 (not dir28) ent3 ent4 ent7 ent14 ent19)))
(assert (not (and reac5 (not dir5) reac19 (not dir19) reac20 dir20 reac26 dir26 reac28 (not dir28) ent3 ent7 ent8 ent14 ent19)))
(assert (not (and reac5 dir5 reac19 (not dir19) reac20 dir20 reac26 dir26 reac27 (not dir27) ent3 ent7 ent8 ent14 ent19)))
(assert (not (and reac9 dir9 reac18 dir18 reac19 (not dir19) reac26 dir26 reac27 (not dir27) ent3 ent7 ent10 ent14 ent19)))
(assert (not (and reac5 (not dir5) reac9 dir9 reac10 (not dir10) reac26 dir26 reac28 (not dir28) ent3 ent7 ent8 ent10 ent19)))
(assert (not (and reac4 (not dir4) reac19 (not dir19) reac20 dir20 reac26 dir26 reac28 (not dir28) ent3 ent7 ent8 ent14 ent19)))
(assert (not (and reac4 (not dir4) reac19 (not dir19) reac20 dir20 reac27 dir27 reac28 (not dir28) ent3 ent7 ent8 ent14 ent19)))
(assert (not (and reac4 dir4 reac19 dir19 reac20 (not dir20) reac26 dir26 reac28 (not dir28) ent3 ent4 ent7 ent14 ent19)))
(assert (not (and reac4 dir4 reac19 dir19 reac20 (not dir20) reac27 dir27 reac28 (not dir28) ent3 ent4 ent7 ent14 ent19)))
(assert (not (and reac14 dir14 reac15 (not dir15) reac19 (not dir19) reac20 dir20 reac28 (not dir28) ent3 ent4 ent12 ent14 ent19)))
(assert (not (and reac6 (not dir6) reac19 dir19 reac20 (not dir20) reac26 (not dir26) reac28 dir28 ent4 ent7 ent8 ent14 ent19)))
(assert (not (and reac5 dir5 reac19 (not dir19) reac20 dir20 reac27 (not dir27) reac28 dir28 ent3 ent4 ent8 ent14 ent19)))
(assert (not (and reac6 dir6 reac19 (not dir19) reac20 dir20 reac27 (not dir27) reac28 dir28 ent3 ent4 ent8 ent14 ent19)))
(assert (not (and reac5 (not dir5) reac6 dir6 reac19 (not dir19) reac20 dir20 reac27 (not dir27) ent3 ent4 ent8 ent14 ent19)))
(assert (not (and reac3 (not dir3) reac12 dir12 reac23 (not dir23) reac24 (not dir24) reac25 dir25 ent1 ent6 ent11 ent17 ent18)))
(assert (not (and reac3 (not dir3) reac6 (not dir6) reac12 dir12 reac24 (not dir24) reac25 dir25 ent1 ent6 ent8 ent11 ent18)))
(assert (not (and reac3 (not dir3) reac12 dir12 reac22 (not dir22) reac24 (not dir24) reac25 dir25 ent1 ent6 ent11 ent16 ent18)))
(assert (not (and reac6 dir6 reac19 (not dir19) reac20 dir20 reac24 dir24 reac25 (not dir25) ent1 ent4 ent8 ent14 ent18)))
(assert (not (and reac11 dir11 reac24 (not dir24) reac25 dir25 reac26 (not dir26) reac27 dir27 reac28 dir28 ent2 ent3 ent4 ent11 ent18 ent19)))
(assert (not (and reac1 dir1 reac24 dir24 reac25 (not dir25) reac26 dir26 reac27 dir27 reac28 (not dir28) ent1 ent2 ent3 ent4 ent18 ent19)))
(assert (not (and reac1 dir1 reac24 dir24 reac25 (not dir25) reac26 dir26 reac27 dir27 reac28 (not dir28) ent1 ent3 ent4 ent7 ent18 ent19)))
(assert (not (and reac4 dir4 reac24 dir24 reac25 (not dir25) reac26 dir26 reac27 (not dir27) reac28 (not dir28) ent1 ent3 ent4 ent7 ent18 ent19)))
(assert (not (and reac3 dir3 reac24 dir24 reac25 (not dir25) reac26 (not dir26) reac27 dir27 reac28 dir28 ent1 ent2 ent6 ent8 ent18 ent19)))
(assert (not (and reac12 (not dir12) reac24 dir24 reac25 (not dir25) reac26 dir26 reac27 dir27 reac28 (not dir28) ent2 ent4 ent6 ent11 ent18 ent19)))
(assert (not (and reac12 (not dir12) reac24 dir24 reac25 (not dir25) reac26 dir26 reac27 dir27 reac28 (not dir28) ent4 ent6 ent7 ent11 ent18 ent19)))
(assert (not (and reac0 (not dir0) reac12 dir12 reac24 (not dir24) reac25 dir25 reac26 (not dir26) reac27 dir27 ent0 ent2 ent6 ent11 ent18 ent19)))
(assert (not (and reac2 dir2 reac7 (not dir7) reac24 dir24 reac25 (not dir25) reac27 (not dir27) reac28 dir28 ent1 ent4 ent6 ent9 ent18 ent19)))
(assert (not (and reac2 dir2 reac24 dir24 reac25 (not dir25) reac26 dir26 reac27 (not dir27) reac28 dir28 ent1 ent4 ent6 ent7 ent18 ent19)))
(assert (not (and reac2 dir2 reac14 (not dir14) reac24 dir24 reac25 (not dir25) reac27 (not dir27) reac28 dir28 ent1 ent4 ent6 ent12 ent18 ent19)))
(assert (not (and reac4 dir4 reac24 dir24 reac25 (not dir25) reac26 dir26 reac27 (not dir27) reac28 (not dir28) ent1 ent4 ent6 ent7 ent18 ent19)))
(assert (not (and reac2 dir2 reac4 (not dir4) reac24 dir24 reac25 (not dir25) reac27 (not dir27) reac28 dir28 ent1 ent4 ent6 ent7 ent18 ent19)))
(assert (not (and reac2 dir2 reac4 dir4 reac24 dir24 reac25 (not dir25) reac26 dir26 reac27 (not dir27) ent1 ent4 ent6 ent7 ent18 ent19)))
(assert (not (and reac2 dir2 reac10 (not dir10) reac24 dir24 reac25 (not dir25) reac27 (not dir27) reac28 dir28 ent1 ent4 ent6 ent10 ent18 ent19)))
(assert (not (and reac2 dir2 reac6 dir6 reac24 dir24 reac25 (not dir25) reac27 (not dir27) reac28 dir28 ent1 ent4 ent6 ent8 ent18 ent19)))
(assert (not (and reac5 (not dir5) reac6 (not dir6) reac24 (not dir24) reac25 dir25 reac27 dir27 reac28 (not dir28) ent1 ent3 ent6 ent8 ent18 ent19)))
(assert (not (and reac1 dir1 reac2 dir2 reac24 dir24 reac25 (not dir25) reac27 dir27 reac28 (not dir28) ent1 ent3 ent4 ent6 ent18 ent19)))
(assert (not (and reac1 (not dir1) reac5 (not dir5) reac24 (not dir24) reac25 dir25 reac27 dir27 reac28 (not dir28) ent1 ent3 ent6 ent8 ent18 ent19)))
(assert (not (and reac3 dir3 reac4 (not dir4) reac24 dir24 reac25 (not dir25) reac27 dir27 reac28 (not dir28) ent1 ent4 ent6 ent7 ent18 ent19)))
(assert (not (and reac3 dir3 reac19 (not dir19) reac24 dir24 reac25 (not dir25) reac26 dir26 reac27 dir27 reac28 (not dir28) ent1 ent2 ent4 ent6 ent14 ent18 ent19)))
(assert (not (and reac3 dir3 reac19 (not dir19) reac24 dir24 reac25 (not dir25) reac26 (not dir26) reac27 dir27 reac28 (not dir28) ent1 ent2 ent4 ent6 ent14 ent18 ent19)))
(assert (not (and reac3 dir3 reac19 (not dir19) reac24 dir24 reac25 (not dir25) reac26 (not dir26) reac27 dir27 reac28 dir28 ent1 ent2 ent4 ent6 ent14 ent18 ent19)))
(assert (not (and reac2 dir2 reac19 (not dir19) reac24 dir24 reac25 (not dir25) reac26 dir26 reac27 (not dir27) reac28 dir28 ent1 ent2 ent4 ent6 ent14 ent18 ent19)))
(assert (not (and reac0 dir0 reac2 (not dir2) reac24 (not dir24) reac25 dir25 reac26 dir26 reac27 dir27 reac28 (not dir28) ent0 ent2 ent3 ent4 ent11 ent18 ent19)))
(assert (not (and reac5 dir5 reac11 dir11 reac24 (not dir24) reac25 dir25 reac26 (not dir26) reac27 (not dir27) reac28 dir28 ent2 ent3 ent4 ent8 ent11 ent18 ent19)))
(assert (not (and reac0 dir0 reac12 (not dir12) reac24 dir24 reac25 (not dir25) reac26 dir26 reac27 dir27 reac28 (not dir28) ent0 ent2 ent3 ent4 ent11 ent18 ent19)))
(assert (not (and reac1 dir1 reac14 (not dir14) reac15 dir15 reac24 dir24 reac25 (not dir25) reac27 dir27 reac28 (not dir28) ent1 ent2 ent3 ent4 ent12 ent18 ent19)))
(assert (not (and reac1 dir1 reac14 (not dir14) reac15 dir15 reac24 dir24 reac25 (not dir25) reac26 (not dir26) reac28 dir28 ent1 ent2 ent3 ent4 ent12 ent18 ent19)))
(assert (not (and reac1 dir1 reac19 (not dir19) reac20 dir20 reac24 dir24 reac25 (not dir25) reac26 dir26 reac28 (not dir28) ent1 ent2 ent3 ent4 ent14 ent18 ent19)))
(assert (not (and reac1 (not dir1) reac6 dir6 reac24 (not dir24) reac25 dir25 reac26 dir26 reac27 (not dir27) reac28 dir28 ent1 ent2 ent3 ent4 ent8 ent18 ent19)))
(assert (not (and reac1 dir1 reac19 (not dir19) reac20 dir20 reac24 dir24 reac25 (not dir25) reac26 dir26 reac27 (not dir27) ent1 ent2 ent3 ent4 ent14 ent18 ent19)))
(assert (not (and reac1 dir1 reac14 (not dir14) reac15 dir15 reac24 dir24 reac25 (not dir25) reac26 (not dir26) reac27 dir27 ent1 ent2 ent3 ent4 ent12 ent18 ent19)))
(assert (not (and reac1 (not dir1) reac5 dir5 reac24 (not dir24) reac25 dir25 reac26 dir26 reac27 (not dir27) reac28 dir28 ent1 ent2 ent3 ent4 ent8 ent18 ent19)))
(assert (not (and reac1 dir1 reac2 (not dir2) reac14 (not dir14) reac15 dir15 reac24 (not dir24) reac26 (not dir26) reac27 dir27 ent1 ent2 ent3 ent4 ent12 ent18 ent19)))
(assert (not (and reac1 dir1 reac2 (not dir2) reac14 (not dir14) reac15 dir15 reac25 (not dir25) reac26 (not dir26) reac27 dir27 ent1 ent2 ent3 ent4 ent12 ent18 ent19)))
(assert (not (and reac0 (not dir0) reac1 dir1 reac2 dir2 reac24 dir24 reac25 (not dir25) reac26 (not dir26) reac27 dir27 ent0 ent1 ent2 ent3 ent4 ent18 ent19)))
(assert (not (and reac1 dir1 reac2 (not dir2) reac14 (not dir14) reac15 dir15 reac24 (not dir24) reac26 (not dir26) reac28 dir28 ent1 ent2 ent3 ent4 ent12 ent18 ent19)))
(assert (not (and reac1 dir1 reac2 (not dir2) reac14 (not dir14) reac15 dir15 reac25 (not dir25) reac26 (not dir26) reac28 dir28 ent1 ent2 ent3 ent4 ent12 ent18 ent19)))
(check-sat)
(get-model)
